21398,4796,2028,19621,7703,22225,6761,3774,10996,3203,20324,20232,2512,16941,13842,6327,8095,13802,17227,15523,23300,16905,24261,14212,6661,2691,16473,22698,22,15770,20173,15416,25795,20445,22509,23220,1773,6154,11873,1930,13987,8957,8956,11264,24945,24947,16871,15765,12353,3762,17494,24841,4527,25091,11995,26008,14250,12239,5143,24325,23290,23540,9078,25758,25684,6227,2692,13156,13427,12390,12873,20468,26013,2919,17394,11953,2457,5125,8671,19322,14341,16062,2631,11833,13027,1869,6576,21398